data;

 param time := 15 ;

 param Warmup := 2 ;

 set SPECS := sp1  sp2  sp3  sp4   ; 

 set INPUTS := f1  f2  f3  f4  f5  f6  f7  f8   ; 

 param:    POOLS:   fixcost  :=
 	 pl1 	 140
 	 pl2 	 140
 	 pl3 	 134
 	 pl4 	 111
 	 pl5 	 146
 	 pl6 	 141
 	 pl7 	 145
 	 pl8 	 113
 	 pl9 	 133
 	 pl10 	 131 ; 

 param:   BLENDS:   revenue   initialinv  :=
  	 B1  	  42 		 38
  	 B2  	  36 		 37
  	 B3  	  37 		 39
  	 B4  	  39 		 32
  	 B5  	  48 		 34 ; 

 param 			 prodrate: 
		1 	 2 	 3 	 4 	 5 	 6 	 7 	 8 	 9 	 10 	 11 	 12 	 13 	 14 	 15 	  	 := 
 f1 		 16 	  24 	  24 	  21 	  18 	  34 	  18 	  13 	  20 	  21 	  11 	  13 	  15 	  11 	  13 	 
 f2 		 26 	  22 	  32 	  33 	  27 	  21 	  12 	  16 	  19 	  18 	  20 	  19 	  22 	  20 	  19 	 
 f3 		 30 	  28 	  30 	  25 	  15 	  31 	  14 	  13 	  19 	  18 	  20 	  23 	  11 	  12 	  19 	 
 f4 		 33 	  32 	  18 	  16 	  19 	  20 	  16 	  14 	  20 	  21 	  20 	  22 	  22 	  17 	  14 	 
 f5 		 18 	  30 	  24 	  22 	  33 	  22 	  13 	  20 	  13 	  23 	  12 	  17 	  11 	  13 	  18 	 
 f6 		 26 	  22 	  31 	  32 	  27 	  30 	  15 	  19 	  14 	  12 	  12 	  16 	  15 	  23 	  15 	 
 f7 		 15 	  18 	  31 	  28 	  22 	  16 	  10 	  13 	  13 	  20 	  23 	  15 	  13 	  19 	  21 	 
 f8 		 16 	  18 	  23 	  22 	  23 	  27 	  12 	  23 	  21 	  12 	  11 	  21 	  15 	  23 	  11 	  ; 

 param 		 demand: 
		1 	 2 	 3 	 4 	 5 	 6 	 7 	 8 	 9 	 10 	 11 	 12 	 13 	 14 	 15 	  	 := 
 B1 		 21 	  17 	  20 	  10 	  13 	  20 	  18 	  20 	  23 	  20 	  28 	  29 	  19 	  26 	  25 	 
 B2 		 17 	  20 	  9 	  17 	  16 	  15 	  26 	  29 	  18 	  20 	  27 	  22 	  29 	  28 	  23 	 
 B3 		 20 	  19 	  21 	  11 	  17 	  9 	  19 	  24 	  21 	  26 	  19 	  24 	  25 	  27 	  21 	 
 B4 		 13 	  19 	  10 	  10 	  15 	  8 	  28 	  19 	  19 	  26 	  23 	  21 	  25 	  20 	  20 	 
 B5 		 14 	  20 	  18 	  21 	  10 	  16 	  26 	  25 	  21 	  28 	  28 	  21 	  22 	  26 	  26 	  ; 

 param: 	 CONTRACTPOOLS: 	 duration  :=
 		 pl1 		 5
 		 pl2 		 8
 		 pl3 		 5
 		 pl4 		 2
 		 pl5 		 5
 		 pl6 		 2 ; 

 param:    capacity := 
 pl1 		 42
 pl2 		 55.5
 pl3 		 42
 pl4 		 51
 pl5 		 51
 pl6 		 63
 pl7 		 73
 pl8 		 82
 pl9 		 80
 pl10 		 85
 f1 		 40
 f2 		 40
 f3 		 67
 f4 		 51
 f5 		 51
 f6 		 51
 f7 		 67
 f8 		 40
 B1 		 64
 B2 		 90
 B3 		 73
 B4 		 79
 B5 		 82 ; 

 param 		 speclevel:
 		sp1 	 sp2 	 sp3 	 sp4 	  := 
 f1 		 0.29 	 0.74 	 0.43 	 0.54 	 
 f2 		 0.60 	 0.64 	 0.25 	 0.47 	 
 f3 		 0.49 	 0.61 	 0.22 	 0.21 	 
 f4 		 0.53 	 0.20 	 0.46 	 0.27 	 
 f5 		 0.21 	 0.74 	 0.45 	 0.34 	 
 f6 		 0.38 	 0.52 	 0.39 	 0.20 	 
 f7 		 0.67 	 0.74 	 0.53 	 0.66 	 
 f8 		 0.39 	 0.62 	 0.62 	 0.54 	  ; 

 param 		 minspec:
 		sp1 	 sp2 	 sp3 	 sp4 	  := 
 B1 		 0.41 	 0.67 	 0.45 	 0.46 	 
 B2 		 0.43 	 0.29 	 0.41 	 0.30 	 
 B3 		 0.38 	 0.49 	 0.25 	 0.35 	 
 B4 		 0.48 	 0.52 	 0.22 	 0.28 	 
 B5 		 0.48 	 0.56 	 0.22 	 0.28 	  ; 

 param 		 maxspec:
 		sp1 	 sp2 	 sp3 	 sp4 	  := 
 B1 		 0.53 	 0.81 	 0.55 	 0.58 	 
 B2 		 0.53 	 0.37 	 0.50 	 0.37 	 
 B3 		 0.65 	 0.63 	 0.52 	 0.49 	 
 B4 		 0.65 	 0.68 	 0.31 	 0.49 	 
 B5 		 0.59 	 0.68 	 0.26 	 0.35 	  ; 

 param:   ARCS: 		 flowlbd 	 varcost  :=
  		 [f1,pl1] 		 8 	 13
  		 [f1,pl2] 		 7 	 14
  		 [f1,pl4] 		 9 	 15
  		 [f1,pl5] 		 7 	 14
  		 [f1,pl6] 		 8 	 10
  		 [f2,pl2] 		 5 	 16
  		 [f2,pl3] 		 8 	 9
  		 [f2,pl5] 		 7 	 9
  		 [f3,pl1] 		 9 	 17
  		 [f3,pl3] 		 6 	 16
  		 [f3,pl4] 		 9 	 9
  		 [f3,pl5] 		 7 	 11
  		 [f3,pl6] 		 9 	 15
  		 [f4,pl1] 		 8 	 10
  		 [f4,pl2] 		 7 	 15
  		 [f4,pl3] 		 6 	 14
  		 [f4,pl4] 		 7 	 14
  		 [f4,pl6] 		 9 	 16
  		 [f5,pl3] 		 7 	 17
  		 [f5,pl4] 		 7 	 14
  		 [f5,pl6] 		 8 	 13
  		 [f6,pl1] 		 9 	 17
  		 [f6,pl2] 		 8 	 15
  		 [f6,pl4] 		 6 	 13
  		 [f6,pl5] 		 7 	 16
  		 [f6,pl6] 		 7 	 9
  		 [f7,pl2] 		 5 	 17
  		 [f7,pl3] 		 7 	 17
  		 [f7,pl4] 		 7 	 12
  		 [f8,pl1] 		 8 	 12
  		 [f8,pl2] 		 7 	 11
  		 [f8,pl5] 		 7 	 14
  		 [f8,pl6] 		 8 	 10
 		 [pl1,pl7] 		 2 	 6
 		 [pl1,pl8] 		 2 	 11
 		 [pl1,pl9] 		 4 	 7
 		 [pl1,pl10] 		 2 	 8
 		 [pl2,pl9] 		 3 	 7
 		 [pl4,pl7] 		 2 	 8
 		 [pl4,pl8] 		 3 	 8
 		 [pl4,pl9] 		 3 	 8
 		 [pl4,pl10] 		 5 	 5
 		 [pl5,pl10] 		 5 	 6
 		 [pl6,pl7] 		 2 	 11
 		 [pl6,pl8] 		 3 	 5
 		 [pl6,pl10] 		 5 	 10
 		 [pl7,pl1] 		 2 	 6
 		 [pl7,pl4] 		 2 	 8
 		 [pl7,pl6] 		 2 	 11
 		 [pl8,pl1] 		 2 	 11
 		 [pl8,pl4] 		 3 	 8
 		 [pl8,pl6] 		 3 	 5
 		 [pl9,pl1] 		 4 	 7
 		 [pl9,pl2] 		 3 	 7
 		 [pl9,pl4] 		 3 	 8
 		 [pl10,pl1] 		 2 	 8
 		 [pl10,pl4] 		 5 	 5
 		 [pl10,pl5] 		 5 	 6
 		 [pl10,pl6] 		 5 	 10
  		 [pl1,B2] 		 9 	 14
  		 [pl3,B1] 		 7 	 16
  		 [pl3,B3] 		 5 	 15
  		 [pl3,B4] 		 9 	 13
  		 [pl4,B1] 		 8 	 9
  		 [pl5,B4] 		 8 	 9
  		 [pl5,B5] 		 6 	 12
  		 [pl7,B4] 		 9 	 17
  		 [pl7,B5] 		 6 	 15
  		 [pl8,B1] 		 7 	 17
  		 [pl8,B2] 		 6 	 15
  		 [pl8,B3] 		 5 	 11
  		 [pl8,B4] 		 5 	 13
  		 [pl9,B1] 		 5 	 9
  		 [pl9,B3] 		 5 	 12
  		 [pl9,B4] 		 9 	 15
  		 [pl10,B1] 		 9 	 10
  		 [pl10,B3] 		 8 	 9
  		 [pl10,B4] 		 6 	 12
  		 [pl10,B5] 		 7 	 11 ; 



